
--- Job modelo_ij_vehiculos.gms Start 01/18/23 16:47:56 41.2.0 5110e5ff WEX-WEI x86 64bit/MS Windows
--- Applying:
    C:\GAMS\41\gmsprmNT.txt
--- GAMS Parameters defined
    Input "G:\Mi unidad\TFG\src\modelo_ij_vehiculos.gms"
    PageSize 0
    ScrDir "G:\Mi unidad\TFG\src\225a\"
    SysDir C:\GAMS\41\
    LogOption 3
    ErrMsg 1
    ErrorLog 99
    IDE 1
    LstTitleLeftAligned 1
Licensee: GAMS Demo license for Antonio Sevilla Sastre   G221121|0002CO-GEN
          UCM, Spain                                               DL079880
          C:\Users\Antonio\Documents\GAMS\gamslice.txt
          antsev01@ucm.es, Antonio Sevilla Sastre                          
          Demo license for demonstration and instructional purposes only
Processor information: 1 socket(s), 14 core(s), and 20 thread(s) available
GAMS 41.2.0   Copyright (C) 1987-2022 GAMS Development. All rights reserved
--- Starting compilation
--- modelo_ij_vehiculos.gms(148) 3 Mb
--- Starting execution: elapsed 0:00:00.000
--- Generating MIP model modelo1
--- modelo_ij_vehiculos.gms(146) 4 Mb
---   1,211 rows  803 columns  4,139 non-zeroes
---   800 discrete-columns
--- Range statistics (absolute non-zero finite values)
--- RHS       [min, max] : [ 1.000E+00, 9.900E+01] - Zero values observed as well
--- Bound     [min, max] : [ 1.000E+00, 1.000E+00] - Zero values observed as well
--- Matrix    [min, max] : [ 1.000E+00, 9.900E+01]
--- Executing CPLEX (Solvelink=2): elapsed 0:00:00.054

IBM ILOG CPLEX   41.2.0 5110e5ff Nov 14, 2022          WEI x86 64bit/MS Window

--- *** This solver runs with a demo license. No commercial use.
--- GMO setup time: 0.00s
--- Space for names approximately 0.05 Mb
--- Use option 'names no' to turn use of names off
--- GMO memory 0.73 Mb (peak 0.74 Mb)
--- Dictionary memory 0.00 Mb
--- Cplex 22.1.0.0 link memory 0.03 Mb (peak 0.14 Mb)
--- Starting Cplex

Version identifier: 22.1.0.0 | 2022-03-09 | 1a383f8ce
CPXPARAM_Advance                                 0
CPXPARAM_Threads                                 1
CPXPARAM_MIP_Display                             4
CPXPARAM_MIP_Pool_Capacity                       0
CPXPARAM_MIP_Tolerances_AbsMIPGap                0
Generic callback                                 0x50
Found incumbent of value 64.000000 after 0.00 sec. (0.07 ticks)
Tried aggregator 2 times.
MIP Presolve eliminated 932 rows and 505 columns.
MIP Presolve added 20 rows and 20 columns.
MIP Presolve modified 12 coefficients.
Aggregator did 236 substitutions.
Reduced MIP has 62 rows, 82 columns, and 233 nonzeros.
Reduced MIP has 8 binaries, 73 generals, 0 SOSs, and 0 indicators.
Presolve time = 0.00 sec. (3.28 ticks)
Probing time = 0.00 sec. (0.01 ticks)
Tried aggregator 2 times.
Detecting symmetries...
MIP Presolve eliminated 20 rows and 20 columns.
MIP Presolve added 20 rows and 20 columns.
Aggregator did 1 substitutions.
Reduced MIP has 61 rows, 81 columns, and 231 nonzeros.
Reduced MIP has 8 binaries, 73 generals, 0 SOSs, and 0 indicators.
Presolve time = 0.00 sec. (0.18 ticks)
Probing time = 0.00 sec. (0.01 ticks)
Clique table members: 1.
MIP emphasis: balance optimality and feasibility.
MIP search method: dynamic search.
Parallel mode: none, using 1 thread.
Tried aggregator 1 time.
LP Presolve eliminated 8 rows and 28 columns.
Aggregator did 19 substitutions.
Reduced LP has 34 rows, 34 columns, and 127 nonzeros.
Presolve time = 0.00 sec. (0.06 ticks)
Initializing dual steep norms . . .

Iteration log . . .
Iteration:     1   Dual objective     =             0.000000
Initializing dual steep norms . . .
Root relaxation solution time = 0.00 sec. (0.15 ticks)

        Nodes                                         Cuts/
   Node  Left     Objective  IInf  Best Integer    Best Bound    ItCnt     Gap

*     0+    0                           64.0000        0.0000           100.00%
Found incumbent of value 64.000000 after 0.00 sec. (3.81 ticks)
      0     0        cutoff             64.0000                     18    0.00%

Root node processing (before b&c):
  Real time             =    0.00 sec. (3.82 ticks)
Sequential b&c:
  Real time             =    0.00 sec. (0.00 ticks)
                          ------------
Total (root+branch&cut) =    0.00 sec. (3.82 ticks)

--- MIP status (101): integer optimal solution.
--- Cplex Time: 0.00sec (det. 3.82 ticks)

--- Fixing integer variables and solving final LP...

Version identifier: 22.1.0.0 | 2022-03-09 | 1a383f8ce
CPXPARAM_Advance                                 2
CPXPARAM_Threads                                 1
CPXPARAM_MIP_Display                             4
CPXPARAM_MIP_Pool_Capacity                       0
CPXPARAM_MIP_Tolerances_AbsMIPGap                0
Tried aggregator 1 time.
LP Presolve eliminated 1210 rows and 803 columns.
All rows and columns eliminated.
Presolve time = 0.00 sec. (0.51 ticks)

--- Fixed MIP status (1): optimal.
--- Cplex Time: 0.00sec (det. 0.93 ticks)


Proven optimal solution
MIP Solution:           64.000000    (18 iterations, 0 nodes)
Final Solve:            64.000000    (0 iterations)

Best possible:          64.000000
Absolute gap:            0.000000
Relative gap:            0.000000

--- Reading solution for model modelo1
*** Status: Normal completion
--- Job modelo_ij_vehiculos.gms Stop 01/18/23 16:47:56 elapsed 0:00:00.120
